experiment/data/lkh-res/Vrp-Set-X-n367/Vrp-Set-X-n367-lkh/0.lkh1.vrp
NAME : 0
COMMENT : CVRP Instance
TYPE : CVRP
DIMENSION : 367
EDGE_WEIGHT_TYPE : EUC_2D
CAPACITY : 218
NODE_COORD_SECTION
1	92700	31800
2	31900	47500
3	47100	28100
4	89400	61500
5	71200	83200
6	72800	81300
7	36000	21700
8	44600	26400
9	95200	65000
10	55800	22400
11	46000	39700
12	46400	34200
13	73300	92100
14	32400	31600
15	33300	49700
16	82600	82100
17	25700	38500
18	38500	24400
19	52300	24900
20	55900	37000
21	66500	86600
22	31000	58300
23	74400	79200
24	42800	63800
25	75900	80400
26	35900	51500
27	39200	21300
28	58300	38000
29	78600	40000
30	51600	83300
31	82300	69200
32	48000	33000
33	87000	69000
34	31100	7600
35	15700	43400
36	34000	55800
37	49900	90500
38	89300	66700
39	66500	78100
40	32800	49900
41	71200	74400
42	94900	49800
43	46300	26600
44	27500	56400
45	45600	32300
46	74800	72700
47	86000	60700
48	82100	55400
49	24500	54200
50	46200	42000
51	85900	66200
52	30800	39900
53	42700	24600
54	27900	41400
55	54300	84100
56	24300	33300
57	40600	49800
58	34700	50900
59	46000	59300
60	24400	53600
61	65000	70300
62	73200	11500
63	23400	66100
64	80800	72000
65	42300	21600
66	14400	39000
67	77200	63300
68	91700	64500
69	50900	34500
70	28600	44900
71	38000	48800
72	47800	33300
73	46500	31000
74	66600	85800
75	33400	36900
76	70800	81500
77	76700	61000
78	47200	32600
79	48100	44900
80	47600	21500
81	55900	26500
82	47700	7900
83	78600	64600
84	50300	25500
85	40600	22600
86	62700	70900
87	98000	57000
88	85900	61100
89	93100	64800
90	28100	31500
91	95400	66500
92	44300	29500
93	49700	35900
94	24700	54200
95	31100	46800
96	90100	60300
97	80100	84700
98	25700	13100
99	34600	63700
100	76700	85500
101	60400	30500
102	43600	20600
103	27700	34500
104	42800	25700
105	40500	53000
106	89200	80200
107	34100	66300
108	85600	52700
109	53900	86100
110	35900	29800
111	77500	86900
112	87500	64200
113	61000	77200
114	86700	65800
115	67700	83200
116	34000	45600
117	32200	44400
118	62300	82500
119	31600	48300
120	94100	59700
121	88600	76800
122	50500	25500
123	55400	80600
124	30900	50200
125	95300	65900
126	67500	82800
127	94600	62700
128	24200	56000
129	49800	33400
130	84400	51100
131	81100	69100
132	46800	52200
133	45400	51000
134	67500	73300
135	18600	34700
136	34800	47400
137	60500	75600
138	48700	36200
139	83500	51700
140	50700	40900
141	37800	45800
142	36800	31900
143	81000	92800
144	57200	84400
145	44500	25500
146	41200	24400
147	81500	94800
148	32800	50900
149	66500	84100
150	29500	53400
151	85900	58500
152	73000	84600
153	38000	43700
154	78600	71900
155	43700	45800
156	37100	27600
157	87600	59400
158	44800	29800
159	51000	23600
160	57300	23000
161	49200	20300
162	83700	90300
163	90900	63000
164	70400	25700
165	64300	80900
166	94200	58300
167	94400	62300
168	44000	44800
169	41100	55100
170	72100	58400
171	52300	19500
172	37000	47400
173	73000	80900
174	52000	52500
175	49800	34900
176	66700	78200
177	24400	37000
178	36500	50900
179	75800	83800
180	32300	51900
181	37800	31500
182	40200	52200
183	98600	71800
184	41900	21600
185	34000	46700
186	66400	69100
187	88700	51900
188	48700	34100
189	79800	63300
190	43200	17800
191	53800	21500
192	61900	73400
193	89700	62600
194	65300	72300
195	99900	65200
196	42400	47300
197	84200	77000
198	50400	34500
199	83000	61700
200	98600	60900
201	74200	85700
202	35200	46100
203	60200	87500
204	98000	77000
205	52400	36700
206	91800	76400
207	65400	75400
208	48200	27400
209	86100	60300
210	34400	18400
211	83200	57300
212	92400	69000
213	79400	66200
214	25800	66300
215	57500	13200
216	27300	53500
217	87100	61200
218	52200	29100
219	65000	26100
220	51700	13700
221	44300	29200
222	63100	96000
223	95000	64800
224	51400	14000
225	21200	60100
226	69800	73500
227	51000	22300
228	32200	52100
229	80600	82900
230	24300	26900
231	52700	41600
232	53500	41100
233	91700	57600
234	61800	29200
235	50400	29600
236	57400	89700
237	36800	60000
238	73300	71200
239	31400	43800
240	36200	47900
241	87400	65200
242	75600	69300
243	51900	16600
244	41800	38100
245	84100	80100
246	59300	97400
247	41000	51500
248	43400	47800
249	50100	24900
250	89600	64700
251	81900	80600
252	31100	56100
253	36300	9800
254	27500	49100
255	84900	47100
256	56300	29700
257	96100	62600
258	58800	70000
259	70500	79500
260	94800	63400
261	28300	49300
262	86500	66400
263	85600	62200
264	22300	45900
265	30700	49700
266	36300	50900
267	65500	78200
268	63600	38600
269	70300	88300
270	78200	90000
271	18600	50800
272	43600	19200
273	39800	51200
274	44900	66800
275	25300	14800
276	11200	57300
277	25000	53200
278	72200	76100
279	37500	39300
280	41500	41600
281	23400	8100
282	51100	47300
283	94000	75400
284	38200	44900
285	26700	45900
286	92600	67700
287	94600	63100
288	96200	36400
289	88600	61300
290	79400	83900
291	13700	49900
292	59400	95400
293	49700	39900
294	86900	62100
295	85700	58600
296	97100	55900
297	52100	27300
298	79300	80600
299	46100	27600
300	91200	91000
301	45700	26500
302	32500	45600
303	31200	30500
304	99100	64500
305	36000	43000
306	67200	93500
307	22700	32800
308	86900	62000
309	31600	45500
310	61700	72500
311	39500	50100
312	40600	22300
313	87900	59200
314	69200	44800
315	53400	34800
316	64100	82300
317	64400	82200
318	32300	49200
319	40500	71500
320	33100	45100
321	90200	50500
322	90000	60800
323	93900	55300
324	68100	74800
325	49700	32000
326	28900	41200
327	46600	26300
328	66200	81200
329	25600	49900
330	74800	88800
331	35200	62400
332	47400	23800
333	20800	45500
334	92200	67300
335	47000	47300
336	59500	78700
337	86900	61000
338	8000	53100
339	82600	81900
340	69100	93500
341	75900	86300
342	33100	34000
343	40500	26300
344	64000	75100
345	24600	48700
346	94900	59300
347	77000	42900
348	87600	56100
349	44800	27400
350	78600	86600
351	72800	80100
352	45300	17600
353	35600	24800
354	53100	28300
355	88500	59900
356	99400	53900
357	78100	59500
358	68800	85600
359	44800	39300
360	30200	41700
361	29800	55000
362	66300	79800
363	56400	28600
364	76200	73200
365	43700	27200
366	30100	33700
367	71800	86600
DEMAND_SECTION
1	0
2	67
3	87
4	73
5	59
6	88
7	58
8	53
9	53
10	97
11	59
12	52
13	83
14	88
15	83
16	95
17	95
18	93
19	63
20	50
21	94
22	56
23	57
24	69
25	68
26	3
27	3
28	1
29	3
30	2
31	1
32	4
33	10
34	6
35	9
36	1
37	3
38	4
39	2
40	10
41	5
42	4
43	6
44	3
45	10
46	5
47	2
48	5
49	9
50	6
51	8
52	2
53	3
54	6
55	5
56	5
57	3
58	3
59	6
60	5
61	8
62	9
63	4
64	8
65	4
66	10
67	5
68	1
69	9
70	9
71	6
72	6
73	7
74	4
75	5
76	3
77	5
78	5
79	1
80	10
81	4
82	2
83	5
84	5
85	8
86	6
87	10
88	8
89	7
90	6
91	8
92	4
93	2
94	4
95	7
96	8
97	10
98	1
99	1
100	9
101	1
102	7
103	9
104	10
105	1
106	2
107	10
108	3
109	6
110	9
111	5
112	8
113	9
114	9
115	7
116	1
117	6
118	4
119	8
120	7
121	8
122	3
123	4
124	9
125	7
126	1
127	1
128	6
129	1
130	9
131	7
132	7
133	3
134	8
135	1
136	6
137	7
138	1
139	4
140	7
141	4
142	2
143	8
144	10
145	6
146	1
147	6
148	4
149	10
150	2
151	3
152	3
153	9
154	8
155	5
156	4
157	5
158	2
159	10
160	5
161	1
162	7
163	7
164	7
165	6
166	7
167	7
168	6
169	10
170	4
171	10
172	6
173	1
174	4
175	2
176	9
177	6
178	9
179	5
180	5
181	2
182	4
183	7
184	10
185	1
186	2
187	4
188	10
189	1
190	9
191	6
192	8
193	1
194	8
195	3
196	3
197	4
198	5
199	7
200	2
201	1
202	3
203	10
204	3
205	2
206	9
207	8
208	8
209	3
210	6
211	6
212	7
213	4
214	2
215	2
216	9
217	9
218	9
219	3
220	1
221	4
222	5
223	2
224	6
225	3
226	5
227	8
228	5
229	9
230	5
231	5
232	8
233	3
234	1
235	7
236	1
237	7
238	9
239	1
240	9
241	9
242	6
243	2
244	3
245	9
246	7
247	1
248	4
249	4
250	10
251	6
252	9
253	9
254	3
255	10
256	2
257	1
258	10
259	4
260	8
261	4
262	10
263	4
264	5
265	9
266	9
267	4
268	2
269	10
270	7
271	2
272	4
273	7
274	9
275	6
276	6
277	1
278	4
279	7
280	6
281	8
282	9
283	4
284	6
285	8
286	4
287	2
288	10
289	7
290	5
291	3
292	3
293	10
294	1
295	4
296	6
297	10
298	1
299	1
300	8
301	3
302	5
303	4
304	7
305	9
306	9
307	9
308	7
309	10
310	4
311	1
312	9
313	5
314	8
315	10
316	5
317	3
318	1
319	1
320	1
321	3
322	2
323	9
324	3
325	10
326	2
327	1
328	3
329	10
330	9
331	4
332	3
333	9
334	5
335	9
336	9
337	7
338	8
339	5
340	9
341	10
342	9
343	7
344	4
345	6
346	8
347	6
348	8
349	7
350	8
351	10
352	8
353	2
354	6
355	3
356	10
357	8
358	5
359	4
360	9
361	1
362	6
363	2
364	8
365	9
366	10
367	9
DEPOT_SECTION
1
-1
EOF
