experiment/data/lkh-res/Vrp-Set-X-n367/Vrp-Set-X-n367-lkh/0.lkh1.tour
NAME : 0.2304805.tour
COMMENT : Length = 2304805
COMMENT : Found by LKH-3 [Keld Helsgaun] Tue Apr  9 07:28:23 2024
TYPE : TOUR
DIMENSION : 383
TOUR_SECTION
1
29
59
36
22
252
361
150
216
277
60
49
94
128
44
214
63
225
276
338
291
271
264
333
35
66
135
307
56
230
90
303
156
343
327
374
139
48
189
83
213
46
351
173
6
5
76
259
278
41
238
242
67
377
179
341
330
13
340
306
222
246
292
236
203
144
55
109
37
30
123
336
113
137
86
170
370
321
33
197
339
16
229
290
97
350
111
270
143
147
162
300
204
183
195
304
200
296
380
268
232
231
79
168
155
196
71
172
240
136
15
40
148
180
228
58
26
266
178
311
57
248
335
282
368
325
32
78
45
73
158
92
221
181
142
342
366
103
177
17
54
326
360
52
75
279
244
138
93
205
381
226
134
324
176
39
267
362
165
118
316
317
328
126
115
149
74
21
358
269
367
152
201
100
31
263
371
347
314
174
132
133
247
273
182
105
169
237
331
99
107
319
24
274
258
310
192
344
207
194
61
186
77
357
375
20
293
11
359
12
72
188
175
198
69
315
379
171
161
80
352
190
272
102
65
184
85
312
27
18
146
53
104
145
332
249
84
122
81
373
219
19
159
227
191
10
160
164
378
101
256
218
235
3
299
349
365
8
301
43
208
297
354
363
234
372
187
348
313
157
355
96
322
4
289
193
163
250
68
89
260
287
127
167
120
346
166
323
42
288
383
129
110
14
353
7
210
275
98
281
34
253
82
220
224
243
215
62
382
233
212
283
206
121
106
245
251
298
25
23
364
154
64
131
199
211
376
356
87
257
223
9
125
91
286
334
38
262
51
114
241
112
294
308
217
337
88
47
209
295
151
108
130
255
369
28
280
153
305
117
239
70
285
345
329
254
261
265
124
318
119
2
95
309
302
320
116
185
202
141
284
50
140
-1
EOF
